362 367
392 397
422 427
452 457
482 487
512 517
542 547
572 577
602 607
632 637
662 667
692 697
722 727
752 757
782 787
812 817
842 847
872 877
902 907
932 937
962 967
992 997
1022 1027
1052 1057
1082 1087
1112 1117
1142 1147
1172 1177
1202 1207
1232 1237
1262 1267
1292 1297
1322 1327
1352 1357
1382 1387
1412 1417
1442 1447
1472 1477
1502 1507
